
Gurobi 7.0.2 (linux64, Matlab) logging started Sun Sep  2 08:55:01 2018


Gurobi 7.0.2 (linux64) logging started Sun Sep  2 08:55:01 2018

Optimize a model with 32946 rows, 57391 columns and 315606 nonzeros
Coefficient statistics:
  Matrix range     [2e-04, 1e+02]
  Objective range  [2e-05, 1e+01]
  Bounds range     [8e-01, 3e+05]
  RHS range        [1e+00, 6e+03]
Iteration    Objective       Primal Inf.    Dual Inf.      Time
       0    1.9035513e+04   0.000000e+00   0.000000e+00      0s

Solved in 0 iterations and 0.02 seconds
Optimal objective  1.903551268e+04
